(set-logic HORN)
(declare-fun state (Int (Array Int Int) (Array Int Int) (Array Int Int) (Array Int Int) Int Int (Array Int Int) (Array Int Int) Int Int Int Int Int Int Int Int Int Int Int Int Int Int Int Int Int Int Bool Bool Bool Bool Bool (Array Int Int) Int) Bool)
(assert (forall ((|hhv_ULTIMATE.start_L61_0_Int| Int) (|hbv_ULTIMATE.start_L52-3_1_Array_Int_Int| (Array Int Int)) (|hhv_ULTIMATE.start_L61_2_Array_Int_Int| (Array Int Int)) (|hhv_ULTIMATE.start_L61_3_Array_Int_Array_Int_Int| (Array Int Int)) (|hhv_ULTIMATE.start_L61_4_Array_Int_Array_Int_Int| (Array Int Int)) (|hhv_ULTIMATE.start_L61_5_Int| Int) (|hhv_ULTIMATE.start_L61_6_Int| Int) (|hhv_ULTIMATE.start_L61_7_Array_Int_Int| (Array Int Int)) (|hhv_ULTIMATE.start_L61_8_Array_Int_Int| (Array Int Int)) (|hhv_ULTIMATE.start_L61_9_Int| Int) (|hhv_ULTIMATE.start_L61_10_Int| Int) (|hhv_ULTIMATE.start_L61_11_Int| Int) (|hbv_ULTIMATE.start_L52-3_12_Int| Int) (|hhv_ULTIMATE.start_L61_13_Int| Int) (|hhv_ULTIMATE.start_L61_14_Int| Int) (|hhv_ULTIMATE.start_L61_15_Int| Int) (|hhv_ULTIMATE.start_L61_16_Int| Int) (|hhv_ULTIMATE.start_L61_17_Int| Int) (|hhv_ULTIMATE.start_L61_18_Int| Int) (|hhv_ULTIMATE.start_L61_19_Int| Int) (|hbv_ULTIMATE.start_L52-3_20_Int| Int) (|hhv_ULTIMATE.start_L61_21_Int| Int) (|hhv_ULTIMATE.start_L61_22_Int| Int) (|hhv_ULTIMATE.start_L61_23_Int| Int) (|hbv_ULTIMATE.start_L52-3_24_Int| Int) (|hhv_ULTIMATE.start_L61_25_Int| Int) (|hhv_ULTIMATE.start_L61_26_Int| Int) (|hhv_ULTIMATE.start_L61_27_Bool| Bool) (|.loc.5| Bool) (|.loc.6| Bool) (|.loc.7| Bool) (|.loc.8| Bool) (|hbv_ULTIMATE.start_L-1_1_Array_Int_Int| (Array Int Int)) (|hbv_ULTIMATE.start_L39_21_Int| Int) (|.x.860| Int) (|.x.858| (Array Int Int)) (|.x.856| Int) (|.x.854| (Array Int Int)) (|.x.850| Int) (|.x.852| (Array Int Int)) (|.x.868| Int) (|.x.870| Int) (|.x.877| Bool) (|.x.851| (Array Int Int)) (|.x.864| Int) (|.x.873| Int) (|.x.875| Int) (|.x.862| Int) (|.x.874| Int) (|.x.869| Int) (|.loc.10| Bool) (|.loc.11| Bool) (|.loc.12| Bool) (|.loc.9| Bool) (|.x.867| Int) (|.x.872| Int) (|.x.863| Int) (|.x.876| Int) (|.x.871| Int) (|.x.866| Int) (|.x.853| (Array Int Int)) (|.x.857| (Array Int Int)) (|.x.855| Int) (|.x.859| Int) (|.x.861| Int) (|.x.865| Int) (|.xtv.1| (Array Int Int)) (|.xtv.2| Int)) (=> (and (and .loc.8 (and (and (not .loc.5) (not .loc.6)) (not .loc.7))) (and (and (and (and (and (= hbv_ULTIMATE.start_L52-3_1_Array_Int_Int hhv_ULTIMATE.start_L61_2_Array_Int_Int) (= hhv_ULTIMATE.start_L61_7_Array_Int_Int hhv_ULTIMATE.start_L61_8_Array_Int_Int)) (= hhv_ULTIMATE.start_L61_5_Int hhv_ULTIMATE.start_L61_6_Int)) (not hhv_ULTIMATE.start_L61_27_Bool)) (= hhv_ULTIMATE.start_L61_3_Array_Int_Array_Int_Int hhv_ULTIMATE.start_L61_4_Array_Int_Array_Int_Int)) (= hhv_ULTIMATE.start_L61_9_Int hhv_ULTIMATE.start_L61_10_Int))) (state |hhv_ULTIMATE.start_L61_0_Int| |hbv_ULTIMATE.start_L52-3_1_Array_Int_Int| |hhv_ULTIMATE.start_L61_2_Array_Int_Int| |hhv_ULTIMATE.start_L61_3_Array_Int_Array_Int_Int| |hhv_ULTIMATE.start_L61_4_Array_Int_Array_Int_Int| |hhv_ULTIMATE.start_L61_5_Int| |hhv_ULTIMATE.start_L61_6_Int| |hhv_ULTIMATE.start_L61_7_Array_Int_Int| |hhv_ULTIMATE.start_L61_8_Array_Int_Int| |hhv_ULTIMATE.start_L61_9_Int| |hhv_ULTIMATE.start_L61_10_Int| |hhv_ULTIMATE.start_L61_11_Int| |hbv_ULTIMATE.start_L52-3_12_Int| |hhv_ULTIMATE.start_L61_13_Int| |hhv_ULTIMATE.start_L61_14_Int| |hhv_ULTIMATE.start_L61_15_Int| |hhv_ULTIMATE.start_L61_16_Int| |hhv_ULTIMATE.start_L61_17_Int| |hhv_ULTIMATE.start_L61_18_Int| |hhv_ULTIMATE.start_L61_19_Int| |hbv_ULTIMATE.start_L52-3_20_Int| |hhv_ULTIMATE.start_L61_21_Int| |hhv_ULTIMATE.start_L61_22_Int| |hhv_ULTIMATE.start_L61_23_Int| |hbv_ULTIMATE.start_L52-3_24_Int| |hhv_ULTIMATE.start_L61_25_Int| |hhv_ULTIMATE.start_L61_26_Int| |hhv_ULTIMATE.start_L61_27_Bool| |.loc.5| |.loc.6| |.loc.7| |.loc.8| |hbv_ULTIMATE.start_L-1_1_Array_Int_Int| |hbv_ULTIMATE.start_L39_21_Int|))))
(assert (forall ((|hhv_ULTIMATE.start_L61_0_Int| Int) (|hbv_ULTIMATE.start_L52-3_1_Array_Int_Int| (Array Int Int)) (|hhv_ULTIMATE.start_L61_2_Array_Int_Int| (Array Int Int)) (|hhv_ULTIMATE.start_L61_3_Array_Int_Array_Int_Int| (Array Int Int)) (|hhv_ULTIMATE.start_L61_4_Array_Int_Array_Int_Int| (Array Int Int)) (|hhv_ULTIMATE.start_L61_5_Int| Int) (|hhv_ULTIMATE.start_L61_6_Int| Int) (|hhv_ULTIMATE.start_L61_7_Array_Int_Int| (Array Int Int)) (|hhv_ULTIMATE.start_L61_8_Array_Int_Int| (Array Int Int)) (|hhv_ULTIMATE.start_L61_9_Int| Int) (|hhv_ULTIMATE.start_L61_10_Int| Int) (|hhv_ULTIMATE.start_L61_11_Int| Int) (|hbv_ULTIMATE.start_L52-3_12_Int| Int) (|hhv_ULTIMATE.start_L61_13_Int| Int) (|hhv_ULTIMATE.start_L61_14_Int| Int) (|hhv_ULTIMATE.start_L61_15_Int| Int) (|hhv_ULTIMATE.start_L61_16_Int| Int) (|hhv_ULTIMATE.start_L61_17_Int| Int) (|hhv_ULTIMATE.start_L61_18_Int| Int) (|hhv_ULTIMATE.start_L61_19_Int| Int) (|hbv_ULTIMATE.start_L52-3_20_Int| Int) (|hhv_ULTIMATE.start_L61_21_Int| Int) (|hhv_ULTIMATE.start_L61_22_Int| Int) (|hhv_ULTIMATE.start_L61_23_Int| Int) (|hbv_ULTIMATE.start_L52-3_24_Int| Int) (|hhv_ULTIMATE.start_L61_25_Int| Int) (|hhv_ULTIMATE.start_L61_26_Int| Int) (|hhv_ULTIMATE.start_L61_27_Bool| Bool) (|.loc.5| Bool) (|.loc.6| Bool) (|.loc.7| Bool) (|.loc.8| Bool) (|hbv_ULTIMATE.start_L-1_1_Array_Int_Int| (Array Int Int)) (|hbv_ULTIMATE.start_L39_21_Int| Int) (|.x.860| Int) (|.x.858| (Array Int Int)) (|.x.856| Int) (|.x.854| (Array Int Int)) (|.x.850| Int) (|.x.852| (Array Int Int)) (|.x.868| Int) (|.x.870| Int) (|.x.877| Bool) (|.x.851| (Array Int Int)) (|.x.864| Int) (|.x.873| Int) (|.x.875| Int) (|.x.862| Int) (|.x.874| Int) (|.x.869| Int) (|.loc.10| Bool) (|.loc.11| Bool) (|.loc.12| Bool) (|.loc.9| Bool) (|.x.867| Int) (|.x.872| Int) (|.x.863| Int) (|.x.876| Int) (|.x.871| Int) (|.x.866| Int) (|.x.853| (Array Int Int)) (|.x.857| (Array Int Int)) (|.x.855| Int) (|.x.859| Int) (|.x.861| Int) (|.x.865| Int) (|.xtv.1| (Array Int Int)) (|.xtv.2| Int)) (=> (and (state |hhv_ULTIMATE.start_L61_0_Int| |hbv_ULTIMATE.start_L52-3_1_Array_Int_Int| |hhv_ULTIMATE.start_L61_2_Array_Int_Int| |hhv_ULTIMATE.start_L61_3_Array_Int_Array_Int_Int| |hhv_ULTIMATE.start_L61_4_Array_Int_Array_Int_Int| |hhv_ULTIMATE.start_L61_5_Int| |hhv_ULTIMATE.start_L61_6_Int| |hhv_ULTIMATE.start_L61_7_Array_Int_Int| |hhv_ULTIMATE.start_L61_8_Array_Int_Int| |hhv_ULTIMATE.start_L61_9_Int| |hhv_ULTIMATE.start_L61_10_Int| |hhv_ULTIMATE.start_L61_11_Int| |hbv_ULTIMATE.start_L52-3_12_Int| |hhv_ULTIMATE.start_L61_13_Int| |hhv_ULTIMATE.start_L61_14_Int| |hhv_ULTIMATE.start_L61_15_Int| |hhv_ULTIMATE.start_L61_16_Int| |hhv_ULTIMATE.start_L61_17_Int| |hhv_ULTIMATE.start_L61_18_Int| |hhv_ULTIMATE.start_L61_19_Int| |hbv_ULTIMATE.start_L52-3_20_Int| |hhv_ULTIMATE.start_L61_21_Int| |hhv_ULTIMATE.start_L61_22_Int| |hhv_ULTIMATE.start_L61_23_Int| |hbv_ULTIMATE.start_L52-3_24_Int| |hhv_ULTIMATE.start_L61_25_Int| |hhv_ULTIMATE.start_L61_26_Int| |hhv_ULTIMATE.start_L61_27_Bool| |.loc.5| |.loc.6| |.loc.7| |.loc.8| |hbv_ULTIMATE.start_L-1_1_Array_Int_Int| |hbv_ULTIMATE.start_L39_21_Int|) (let ((.def_44 (not .loc.5))) (let ((.def_45 (not .loc.6))) (let ((.def_47 (not .loc.7))) (let ((.def_92 (= hhv_ULTIMATE.start_L61_14_Int .x.864))) (let ((.def_95 (= hhv_ULTIMATE.start_L61_23_Int .x.873))) (let ((.def_98 (= hhv_ULTIMATE.start_L61_25_Int .x.875))) (let ((.def_100 (= hhv_ULTIMATE.start_L61_27_Bool .x.877))) (let ((.def_107 (= .x.864 0))) (let ((.def_110 (not .loc.8))) (let ((.def_121 (select hhv_ULTIMATE.start_L61_3_Array_Int_Array_Int_Int hbv_ULTIMATE.start_L52-3_12_Int))) (let ((.def_123 (select .def_121 (+ (* 4 hhv_ULTIMATE.start_L61_19_Int) (+ hbv_ULTIMATE.start_L52-3_24_Int (* 4 (* hhv_ULTIMATE.start_L61_16_Int hhv_ULTIMATE.start_L61_17_Int))))))) (let ((.def_131 (<= hhv_ULTIMATE.start_L61_16_Int hhv_ULTIMATE.start_L61_19_Int))) (let ((.def_132 (not .def_131))) (let ((.def_135 (or hhv_ULTIMATE.start_L61_27_Bool (and (= .x.875 .def_123) (and (and (= .x.864 .x.873) (= .x.873 (ite (<= .x.875 hhv_ULTIMATE.start_L61_13_Int) 1 0))) .def_132))))) (let ((.def_137 (= hbv_ULTIMATE.start_L52-3_1_Array_Int_Int .x.851))) (let ((.def_140 (= hbv_ULTIMATE.start_L52-3_12_Int .x.862))) (let ((.def_142 (= hhv_ULTIMATE.start_L61_18_Int .x.868))) (let ((.def_144 (= hbv_ULTIMATE.start_L52-3_20_Int .x.870))) (let ((.def_147 (= hbv_ULTIMATE.start_L52-3_24_Int .x.874))) (let ((.def_151 (= hhv_ULTIMATE.start_L61_19_Int .x.869))) (let ((.def_159 (and .def_92 .def_95))) (let ((.def_160 (and .def_100 .def_159))) (let ((.def_170 (not .loc.12))) (let ((.def_172 (not .loc.11))) (let ((.def_174 (not .loc.10))) (let ((.def_179 (= (+ hhv_ULTIMATE.start_L61_19_Int (* (- 1) .x.869)) (- 1)))) (let ((.def_180 (or hhv_ULTIMATE.start_L61_27_Bool .def_179))) (let ((.def_185 (and hhv_ULTIMATE.start_L61_27_Bool .def_92))) (let ((.def_202 (not .loc.9))) (let ((.def_208 (and .def_100 (and .def_98 (and .def_95 (and .def_92 .def_151)))))) (let ((.def_210 (and .loc.7 (and .loc.5 .def_208)))) (let ((.def_222 (<= hhv_ULTIMATE.start_L61_16_Int hhv_ULTIMATE.start_L61_17_Int))) (let ((.def_223 (or hhv_ULTIMATE.start_L61_27_Bool .def_222))) (let ((.def_227 (and .def_100 (and .def_98 .def_159)))) (let ((.def_242 (= .x.869 0))) (let ((.def_244 (or hhv_ULTIMATE.start_L61_27_Bool (and (not .def_222) .def_242)))) (let ((.def_248 (= hhv_ULTIMATE.start_L61_17_Int .x.867))) (let ((.def_266 (or hhv_ULTIMATE.start_L61_27_Bool (= (+ hhv_ULTIMATE.start_L61_17_Int (* (- 1) .x.867)) (- 1))))) (let ((.def_307 (= .x.867 0))) (let ((.def_308 (and .def_242 .def_307))) (let ((.def_330 (and .loc.5 (and .def_100 (and .def_98 (and .def_95 (and .def_151 (and .def_185 .def_248)))))))) (let ((.def_345 (and .def_151 (and .def_92 .def_248)))) (let ((.def_349 (and .loc.5 (and .def_100 (and .def_98 (and .def_95 .def_345)))))) (let ((.def_362 (or hhv_ULTIMATE.start_L61_27_Bool .def_131))) (let ((.def_406 (= hhv_ULTIMATE.start_L61_22_Int .x.872))) (let ((.def_408 (= hhv_ULTIMATE.start_L61_13_Int .x.863))) (let ((.def_437 (and .def_100 (and .def_98 (and .def_95 (and .def_406 (and .def_151 (and .def_248 (and .def_92 (and hhv_ULTIMATE.start_L61_27_Bool .def_408)))))))))) (let ((.def_452 (and .def_92 .def_408))) (let ((.def_453 (and .def_248 .def_452))) (let ((.def_457 (and .def_98 (and .def_95 (and .def_406 (and .def_151 .def_453)))))) (let ((.def_458 (and .def_100 .def_457))) (let ((.def_479 (and .loc.6 (and .loc.5 (and .def_100 (and .def_98 (and .def_95 (and .def_406 .def_453)))))))) (let ((.def_507 (<= hhv_ULTIMATE.start_L61_15_Int hhv_ULTIMATE.start_L61_17_Int))) (let ((.def_558 (= hhv_ULTIMATE.start_L61_26_Int .x.876))) (let ((.def_560 (= hhv_ULTIMATE.start_L61_21_Int .x.871))) (let ((.def_599 (or hhv_ULTIMATE.start_L61_27_Bool (and .def_132 (= hbv_ULTIMATE.start_L39_21_Int .def_123))))) (let ((.def_623 (= hhv_ULTIMATE.start_L61_7_Array_Int_Int .x.857))) (let ((.def_625 (= hhv_ULTIMATE.start_L61_5_Int .x.855))) (let ((.def_628 (= hhv_ULTIMATE.start_L61_9_Int .x.859))) (let ((.def_629 (and (and .def_623 .def_625) .def_628))) (let ((.def_631 (= hhv_ULTIMATE.start_L61_11_Int .x.861))) (let ((.def_632 (and .def_629 .def_631))) (let ((.def_634 (= hhv_ULTIMATE.start_L61_15_Int .x.865))) (let ((.def_636 (= hhv_ULTIMATE.start_L61_16_Int .x.866))) (let ((.def_742 (= hhv_ULTIMATE.start_L61_3_Array_Int_Array_Int_Int .x.853))) (and (and (= hhv_ULTIMATE.start_L61_10_Int .x.860) (and (= hhv_ULTIMATE.start_L61_8_Array_Int_Int .x.858) (and (= hhv_ULTIMATE.start_L61_6_Int .x.856) (and (= hhv_ULTIMATE.start_L61_4_Array_Int_Array_Int_Int .x.854) (and (= hhv_ULTIMATE.start_L61_0_Int .x.850) (= hhv_ULTIMATE.start_L61_2_Array_Int_Int .x.852)))))) (or (or (and (or (or (or (and (or (or (and (or (or (or (or (or (or (or (or (and (or (or (or (or (or (or (or (or (or (and (or (or (or (and (or (and (or (and .def_44 (and .loc.8 (and .loc.7 (and .loc.6 (and (or (= .x.868 .x.870) .x.877) (and (and (and (and (or hhv_ULTIMATE.start_L61_27_Bool (and (= (store hbv_ULTIMATE.start_L52-3_1_Array_Int_Int hbv_ULTIMATE.start_L52-3_12_Int 0) .x.851) (= .x.870 0))) .def_92) .def_95) .def_98) .def_100)))))) (and (and (and (and (and (and (and (or hhv_ULTIMATE.start_L61_27_Bool .def_107) (and .def_45 (and .def_47 (and (and .loc.5 .x.877) .def_110)))) .def_135) .def_137) .def_140) .def_142) .def_144) .def_147)) (and (and (and .def_151 .loc.10) .loc.11) .loc.12)) (and (and (and (and (and .def_147 (and .def_144 (and .def_142 (and .def_140 (and .def_137 (and .def_45 (and .def_47 (and .def_110 (and .def_44 .def_160))))))))) .def_170) .def_172) .def_174) .def_180)) .loc.9) (and (and .def_147 (and .def_144 (and .def_142 (and .def_140 (and .def_137 (and .def_45 (and .loc.12 (and .loc.11 (and .loc.10 (and .loc.8 (and .loc.7 (and .loc.5 (and .def_100 (and .def_98 (and .def_95 (and .def_151 .def_185)))))))))))))))) .def_202)) (and (and .def_202 (and .def_147 (and .def_144 (and .def_142 (and .def_140 (and .def_137 (and .def_45 (and .loc.12 (and .loc.11 (and .loc.10 (and .loc.8 .def_210))))))))))) .def_223)) (and (and .def_174 (and .def_172 (and .def_170 (and .def_147 (and .def_144 (and .def_142 (and .def_140 (and .def_137 (and .def_45 (and .loc.9 (and .loc.8 (and .loc.7 (and .loc.5 .def_227))))))))))))) .def_244)) .def_248) (and (and .def_174 (and .def_147 (and .def_144 (and .def_142 (and .def_140 (and .def_137 (and .def_47 (and .def_110 (and .loc.12 (and .loc.11 (and .loc.9 (and .def_44 (and .loc.6 .def_208))))))))))))) .def_266)) (and (or .x.877 (not .def_107)) (and .def_202 (and .def_174 (and .def_172 (and .def_170 (and .def_147 (and .def_144 (and .def_142 (and .def_140 (and .def_137 (and .def_135 (and .def_45 (and .def_47 (and .def_110 (and .loc.5 (and .def_100 (and .def_151 .def_248)))))))))))))))))) (and .def_202 (and .def_174 (and .def_172 (and .def_170 (and .def_147 (and .def_144 (and .def_142 (and .def_140 (and .def_137 (and .def_135 (and .def_45 (and .def_47 (and .def_110 (and .loc.5 (and .def_151 (and .def_248 (and hhv_ULTIMATE.start_L61_27_Bool .x.877)))))))))))))))))) (and (or hhv_ULTIMATE.start_L61_27_Bool .def_308) (and .def_174 (and .def_147 (and .def_144 (and .def_142 (and .def_140 (and .def_137 (and .def_45 (and .loc.12 (and .loc.11 (and .loc.9 (and .def_44 (and .loc.8 (and .loc.7 .def_227))))))))))))))) (and .def_202 (and .def_172 (and .def_170 (and .def_147 (and .def_144 (and .def_142 (and .def_140 (and .def_137 (and .def_45 (and .def_47 (and .def_110 (and .loc.10 .def_330))))))))))))) (and (and .def_202 (and .def_172 (and .def_170 (and .def_147 (and .def_144 (and .def_142 (and .def_140 (and .def_137 (and .def_45 (and .def_47 (and .def_110 (and .loc.10 .def_349)))))))))))) .def_362)) (and .def_202 (and .def_174 (and .def_147 (and .def_144 (and .def_142 (and .def_140 (and .def_137 (and .def_47 (and .loc.12 (and .loc.11 (and .loc.8 (and .loc.6 .def_330))))))))))))) (and .def_223 (and .def_202 (and .def_174 (and .def_147 (and .def_144 (and .def_142 (and .def_140 (and .def_137 (and .def_47 (and .loc.12 (and .loc.11 (and .loc.8 (and .loc.6 .def_349)))))))))))))) (and .def_266 (and .def_172 (and .def_147 (and .def_144 (and .def_142 (and .def_140 (and .def_137 (and .def_45 (and .def_110 (and .loc.12 (and .loc.10 (and .loc.9 .def_210))))))))))))) (and .def_406 .def_408)) (and (or hhv_ULTIMATE.start_L61_27_Bool (and .def_308 (= .x.863 (select .def_121 hbv_ULTIMATE.start_L52-3_24_Int)))) (and .def_172 (and .def_147 (and .def_144 (and .def_142 (and .def_140 (and .def_137 (and .def_47 (and .loc.12 (and .loc.10 (and .loc.9 (and .def_44 (and .loc.8 (and .loc.6 .def_227))))))))))))))) (and .def_174 (and .def_170 (and .def_147 (and .def_144 (and .def_142 (and .def_140 (and .def_137 (and .def_45 (and .def_110 (and .loc.11 (and .loc.9 (and .def_44 (and .loc.7 .def_437)))))))))))))) (and .def_362 (and .def_174 (and .def_170 (and .def_147 (and .def_144 (and .def_142 (and .def_140 (and .def_137 (and .def_45 (and .def_110 (and .loc.11 (and .loc.9 (and .def_44 (and .loc.7 .def_458))))))))))))))) (and .def_202 (and .def_180 (and .def_174 (and .def_170 (and .def_147 (and .def_144 (and .def_142 (and .def_140 (and .def_137 (and .def_47 (and .def_110 (and .loc.11 .def_479))))))))))))) (and .def_202 (and .def_172 (and .def_147 (and .def_144 (and .def_142 (and .def_140 (and .def_137 (and .def_45 (and .def_47 (and .loc.12 (and .loc.10 (and .loc.8 (and .loc.5 .def_437)))))))))))))) (and (or hhv_ULTIMATE.start_L61_27_Bool .def_507) (and .def_202 (and .def_172 (and .def_147 (and .def_144 (and .def_142 (and .def_140 (and .def_137 (and .def_45 (and .def_47 (and .loc.12 (and .loc.10 (and .loc.8 (and .loc.5 .def_458))))))))))))))) (and .def_244 (and .def_202 (and .def_174 (and .def_170 (and .def_147 (and .def_144 (and .def_142 (and .def_140 (and .def_137 (and .def_47 (and .loc.11 (and .loc.8 .def_479))))))))))))) (and .def_266 (and .def_174 (and .def_172 (and .def_147 (and .def_144 (and .def_142 (and .def_140 (and .def_137 (and .def_110 (and .loc.12 (and .loc.9 (and .loc.7 (and .loc.6 (and .loc.5 (and .def_100 (and .def_98 (and .def_95 (and .def_406 (and .def_151 .def_452)))))))))))))))))))) (and .def_558 .def_560)) (and (and (or .x.877 (and (not (<= hbv_ULTIMATE.start_L39_21_Int hhv_ULTIMATE.start_L61_13_Int)) (= .x.863 (select (select .x.853 .x.862) (+ .x.874 (+ (* 4 .x.869) (* 4 (* .x.867 .x.866)))))))) (and .def_172 (and .def_170 (and .def_147 (and .def_144 (and .def_142 (and .def_140 (and .def_137 (and .def_45 (and .def_110 (and .loc.10 (and .loc.9 (and .def_44 (and .loc.7 (and .def_100 (and .def_98 (and .def_95 (and .def_345 .def_406)))))))))))))))))) .def_599)) (and (or .x.877 (<= hbv_ULTIMATE.start_L39_21_Int .x.863)) (and .def_599 (and .def_172 (and .def_170 (and .def_147 (and .def_144 (and .def_142 (and .def_140 (and .def_137 (and .def_45 (and .def_110 (and .loc.10 (and .loc.9 (and .def_44 (and .loc.7 (and .def_100 (and .def_457 .def_558)))))))))))))))))) (and (and .def_632 .def_634) .def_636)) (and (or hhv_ULTIMATE.start_L61_27_Bool (and (and (= .x.855 0) (= .x.859 0)) (= hbv_ULTIMATE.start_L-1_1_Array_Int_Int (store hbv_ULTIMATE.start_L52-3_1_Array_Int_Int 0 0)))) (and (or .x.877 (and (and (and (and (and .def_242 (and .def_307 (and (and (not (<= .x.850 .x.862)) (and (= .x.851 (store hbv_ULTIMATE.start_L-1_1_Array_Int_Int .x.862 1)) (not (= .x.862 0)))) (= (select hbv_ULTIMATE.start_L-1_1_Array_Int_Int .x.862) 0)))) (= .x.866 1500)) (= .x.857 (store hhv_ULTIMATE.start_L61_7_Array_Int_Int .x.862 (* 4 (* .x.866 .x.866))))) (= .x.865 1000)) (= .x.874 0))) (and .def_174 (and .def_172 (and .def_142 (and .def_45 (and .def_47 (and .loc.12 (and .loc.9 (and .def_44 (and .loc.8 .def_160)))))))))))) (and .def_170 (and .def_147 (and .def_144 (and .def_142 (and .def_140 (and .def_137 (and .def_110 (and .loc.11 (and .loc.10 (and .loc.9 (and .def_44 (and .loc.7 (and .loc.6 (and .def_100 (and .def_558 (and .def_98 (and .def_95 (and .def_406 (and .def_560 (and .def_151 (and .def_248 (and .def_636 (and .def_634 (and .def_92 (and .def_408 (and .def_631 (and .def_628 (and .def_623 (and hhv_ULTIMATE.start_L61_27_Bool .def_625)))))))))))))))))))))))))))))) (and .def_362 (and .def_170 (and .def_147 (and .def_144 (and .def_142 (and .def_140 (and .def_137 (and .def_110 (and .loc.11 (and .loc.10 (and .loc.9 (and .def_44 (and .loc.7 (and .loc.6 (and .def_100 (and .def_558 (and .def_98 (and .def_95 (and .def_406 (and .def_560 (and .def_151 (and .def_248 (and .def_636 (and .def_634 (and .def_92 (and .def_408 .def_632))))))))))))))))))))))))))) .def_742) (and (or hhv_ULTIMATE.start_L61_27_Bool (and (and (= .x.853 (store hhv_ULTIMATE.start_L61_3_Array_Int_Array_Int_Int hbv_ULTIMATE.start_L52-3_12_Int (store .def_121 (+ (* 4 hhv_ULTIMATE.start_L61_19_Int) (+ hbv_ULTIMATE.start_L52-3_24_Int (* 4 (* hhv_ULTIMATE.start_L61_16_Int hhv_ULTIMATE.start_L61_17_Int)))) hhv_ULTIMATE.start_L61_11_Int))) (and (<= hhv_ULTIMATE.start_L61_11_Int 2147483647) (and .def_132 .def_179))) (<= (- 2147483648) hhv_ULTIMATE.start_L61_11_Int))) (and .def_202 (and .def_170 (and .def_147 (and .def_144 (and .def_142 (and .def_140 (and .def_137 (and .def_110 (and .loc.11 (and .loc.10 (and .def_44 (and .loc.7 (and .loc.6 (and .def_100 (and .def_558 (and .def_98 (and .def_95 (and .def_406 (and .def_560 (and .def_248 (and .def_636 (and .def_634 (and .def_92 (and .def_408 .def_629)))))))))))))))))))))))))) (and (or hhv_ULTIMATE.start_L61_27_Bool (and .def_242 (not .def_507))) (and .def_202 (and .def_170 (and .def_147 (and .def_144 (and .def_142 (and .def_140 (and .def_137 (and .def_45 (and .def_47 (and .loc.11 (and .loc.10 (and .loc.8 (and .loc.5 (and .def_100 (and .def_558 (and .def_98 (and .def_95 (and .def_406 (and .def_560 (and .def_248 (and .def_636 (and .def_634 (and .def_92 (and .def_408 (and .def_631 (and .def_628 (and .def_623 (and .def_625 .def_742))))))))))))))))))))))))))))))))))))))))))))))))))))))))))))))))))))))))))))))))))))))))))))))))) (state |.x.850| |.x.851| |.x.852| |.x.853| |.x.854| |.x.855| |.x.856| |.x.857| |.x.858| |.x.859| |.x.860| |.x.861| |.x.862| |.x.863| |.x.864| |.x.865| |.x.866| |.x.867| |.x.868| |.x.869| |.x.870| |.x.871| |.x.872| |.x.873| |.x.874| |.x.875| |.x.876| |.x.877| |.loc.9| |.loc.10| |.loc.11| |.loc.12| |.xtv.1| |.xtv.2|))))
(assert (forall ((|hhv_ULTIMATE.start_L61_0_Int| Int) (|hbv_ULTIMATE.start_L52-3_1_Array_Int_Int| (Array Int Int)) (|hhv_ULTIMATE.start_L61_2_Array_Int_Int| (Array Int Int)) (|hhv_ULTIMATE.start_L61_3_Array_Int_Array_Int_Int| (Array Int Int)) (|hhv_ULTIMATE.start_L61_4_Array_Int_Array_Int_Int| (Array Int Int)) (|hhv_ULTIMATE.start_L61_5_Int| Int) (|hhv_ULTIMATE.start_L61_6_Int| Int) (|hhv_ULTIMATE.start_L61_7_Array_Int_Int| (Array Int Int)) (|hhv_ULTIMATE.start_L61_8_Array_Int_Int| (Array Int Int)) (|hhv_ULTIMATE.start_L61_9_Int| Int) (|hhv_ULTIMATE.start_L61_10_Int| Int) (|hhv_ULTIMATE.start_L61_11_Int| Int) (|hbv_ULTIMATE.start_L52-3_12_Int| Int) (|hhv_ULTIMATE.start_L61_13_Int| Int) (|hhv_ULTIMATE.start_L61_14_Int| Int) (|hhv_ULTIMATE.start_L61_15_Int| Int) (|hhv_ULTIMATE.start_L61_16_Int| Int) (|hhv_ULTIMATE.start_L61_17_Int| Int) (|hhv_ULTIMATE.start_L61_18_Int| Int) (|hhv_ULTIMATE.start_L61_19_Int| Int) (|hbv_ULTIMATE.start_L52-3_20_Int| Int) (|hhv_ULTIMATE.start_L61_21_Int| Int) (|hhv_ULTIMATE.start_L61_22_Int| Int) (|hhv_ULTIMATE.start_L61_23_Int| Int) (|hbv_ULTIMATE.start_L52-3_24_Int| Int) (|hhv_ULTIMATE.start_L61_25_Int| Int) (|hhv_ULTIMATE.start_L61_26_Int| Int) (|hhv_ULTIMATE.start_L61_27_Bool| Bool) (|.loc.5| Bool) (|.loc.6| Bool) (|.loc.7| Bool) (|.loc.8| Bool) (|hbv_ULTIMATE.start_L-1_1_Array_Int_Int| (Array Int Int)) (|hbv_ULTIMATE.start_L39_21_Int| Int) (|.x.860| Int) (|.x.858| (Array Int Int)) (|.x.856| Int) (|.x.854| (Array Int Int)) (|.x.850| Int) (|.x.852| (Array Int Int)) (|.x.868| Int) (|.x.870| Int) (|.x.877| Bool) (|.x.851| (Array Int Int)) (|.x.864| Int) (|.x.873| Int) (|.x.875| Int) (|.x.862| Int) (|.x.874| Int) (|.x.869| Int) (|.loc.10| Bool) (|.loc.11| Bool) (|.loc.12| Bool) (|.loc.9| Bool) (|.x.867| Int) (|.x.872| Int) (|.x.863| Int) (|.x.876| Int) (|.x.871| Int) (|.x.866| Int) (|.x.853| (Array Int Int)) (|.x.857| (Array Int Int)) (|.x.855| Int) (|.x.859| Int) (|.x.861| Int) (|.x.865| Int) (|.xtv.1| (Array Int Int)) (|.xtv.2| Int)) (=> (state |hhv_ULTIMATE.start_L61_0_Int| |hbv_ULTIMATE.start_L52-3_1_Array_Int_Int| |hhv_ULTIMATE.start_L61_2_Array_Int_Int| |hhv_ULTIMATE.start_L61_3_Array_Int_Array_Int_Int| |hhv_ULTIMATE.start_L61_4_Array_Int_Array_Int_Int| |hhv_ULTIMATE.start_L61_5_Int| |hhv_ULTIMATE.start_L61_6_Int| |hhv_ULTIMATE.start_L61_7_Array_Int_Int| |hhv_ULTIMATE.start_L61_8_Array_Int_Int| |hhv_ULTIMATE.start_L61_9_Int| |hhv_ULTIMATE.start_L61_10_Int| |hhv_ULTIMATE.start_L61_11_Int| |hbv_ULTIMATE.start_L52-3_12_Int| |hhv_ULTIMATE.start_L61_13_Int| |hhv_ULTIMATE.start_L61_14_Int| |hhv_ULTIMATE.start_L61_15_Int| |hhv_ULTIMATE.start_L61_16_Int| |hhv_ULTIMATE.start_L61_17_Int| |hhv_ULTIMATE.start_L61_18_Int| |hhv_ULTIMATE.start_L61_19_Int| |hbv_ULTIMATE.start_L52-3_20_Int| |hhv_ULTIMATE.start_L61_21_Int| |hhv_ULTIMATE.start_L61_22_Int| |hhv_ULTIMATE.start_L61_23_Int| |hbv_ULTIMATE.start_L52-3_24_Int| |hhv_ULTIMATE.start_L61_25_Int| |hhv_ULTIMATE.start_L61_26_Int| |hhv_ULTIMATE.start_L61_27_Bool| |.loc.5| |.loc.6| |.loc.7| |.loc.8| |hbv_ULTIMATE.start_L-1_1_Array_Int_Int| |hbv_ULTIMATE.start_L39_21_Int|) (not (and hhv_ULTIMATE.start_L61_27_Bool (and .loc.8 (and .loc.7 (and .loc.5 .loc.6))))))))
(check-sat)
